WARNING: Method definition require(Symbol) in module Base at loading.jl:345 overwritten in module ConicBenchmarkUtilities at /home/ubuntu/.julia/v0.5/Requires/src/require.jl:12.
Coin0505I Presolved problem not optimal, resolve after postsolve
Coin0505I Presolved problem not optimal, resolve after postsolve
#SOLVERNAME# PAJ_SUBOPT-2-1_CBC_ECOS
#SOLVER# Pajarito.PajaritoSolver(2,3600.0,1.0e-5,false,Cbc.CbcMathProgSolverInterface.CbcSolver(Any[(:logLevel,0),(:ratioGap,0.0),(:seconds,3600.0)]),Cbc.CbcMathProgSolverInterface.CbcSolver(Any[(:logLevel,0),(:ratioGap,0.01),(:seconds,120)]),2,false,true,ECOS.ECOSSolver(Any[(:verbose,false)]),true,false,false,true,false,true,false,true,true,true,true,false,false,true,false,false,false,true,1.0e-10,0.0001,1.0e-6,0.01,1.0e-6)
#INSTANCE# sssd-weak-30-4.cbf.gz
#TIMELIMIT# 3600.0

Transforming original data......Done     0.00s

Creating conic model data......Done     0.00s

Creating MIP model......Done     0.00s

Cone types summary:
Cone       | Count    | Min dim  | Max dim 
       SOC |       12 |        3 |        3

Solving conic relaxation......Done     0.01s
 - Relaxation status    =        Optimal
 - Relaxation objective =  104042.779337

Creating conic subproblem model......Done     0.00s

Starting iterative outer approximation algorithm

Iter | Best obj       | OA obj         | Rel gap     | Time (s)   
   1 |  +2.641337e+05 |  +2.234276e+05 |   1.541e-01 |   3.374e-01
   2 |  +2.641337e+05 |  +2.638696e+05 |   9.998e-04 |   2.440e+00
Presolve 100 (-327) rows, 28 (-216) columns and 252 (-816) elements
Perturbing problem by 0.001 % of 66979.336 - largest nonzero change 0.59156674 (% 0.00089952409) - largest zero change 0.18340056
0  Obj 160784.98 Primal inf 97.521928 (90)
44  Obj 264140.86
Optimal - objective value 264133.69
After Postsolve, objective 264133.69, infeasibilities - dual 0 (0), primal 0 (0)
Optimal objective 264133.6917 - 44 iterations time 0.002, Presolve 0.00
Cbc0045I Solution with objective value 264134 saved
   3 |  +2.641337e+05 |  +2.640015e+05 |   5.006e-04 |   1.529e+01
Presolve 132 (-327) rows, 28 (-216) columns and 332 (-832) elements
Perturbing problem by 0.001 % of 404882.19 - largest nonzero change 0.36354864 (% 8.9791217e-05) - largest zero change 0.36298668
0  Obj 160782.7 Primal inf 175.45775 (122)
50  Obj 264140.14
Optimal - objective value 264133.69
After Postsolve, objective 264133.69, infeasibilities - dual 0 (0), primal 0 (0)
Optimal objective 264133.6917 - 50 iterations time 0.002, Presolve 0.00
Cbc0045I Solution with objective value 264134 saved
   4 |  +2.641337e+05 |  +2.640545e+05 |   2.999e-04 |   2.343e+01
Presolve 162 (-327) rows, 28 (-216) columns and 406 (-848) elements
Perturbing problem by 0.001 % of 412438.87 - largest nonzero change 0.37033373 (% 8.979118e-05) - largest zero change 0.36975976
0  Obj 160785.81 Primal inf 166.55892 (152)
59  Obj 264135.19 Primal inf 2.1783861e-05 (3)
62  Obj 264141.24
Optimal - objective value 264133.69
After Postsolve, objective 264133.69, infeasibilities - dual 0 (0), primal 0 (0)
Optimal objective 264133.6917 - 62 iterations time 0.002, Presolve 0.00
Cbc0045I Solution with objective value 264134 saved
   5 |  +2.641337e+05 |  +2.640932e+05 |   1.534e-04 |   3.742e+01
Presolve 192 (-327) rows, 28 (-216) columns and 480 (-864) elements
Perturbing problem by 0.001 % of 499781.99 - largest nonzero change 0.44875842 (% 8.9790834e-05) - largest zero change 0.44804564
0  Obj 160788.2 Primal inf 149.43726 (182)
65  Obj 264134.16 Primal inf 0.0003775128 (11)
72  Obj 264142.33
Optimal - objective value 264133.69
After Postsolve, objective 264133.69, infeasibilities - dual 0 (0), primal 0 (0)
Optimal objective 264133.6917 - 72 iterations time 0.002, Presolve 0.00
Cbc0045I Solution with objective value 264134 saved
   6 |  +2.641337e+05 |  +2.640964e+05 |   1.413e-04 |   5.563e+01
Presolve 220 (-327) rows, 28 (-216) columns and 548 (-880) elements
Perturbing problem by 0.001 % of 999615.28 - largest nonzero change 0.60230314 (% 6.0260604e-05) - largest zero change 0.52844523
0  Obj 160783.45 Primal inf 210.64607 (210)
67  Obj 264130.15 Primal inf 4.6978223e-05 (8)
70  Obj 264135.81
Optimal - objective value 264133.69
After Postsolve, objective 264133.69, infeasibilities - dual 0 (0), primal 0 (0)
Optimal objective 264133.6917 - 70 iterations time 0.002, Presolve 0.00
Cbc0045I Solution with objective value 264134 saved
   7 |  +2.641337e+05 |  +2.641032e+05 |   1.153e-04 |   7.274e+01
Presolve 250 (-327) rows, 28 (-216) columns and 622 (-896) elements
Perturbing problem by 0.001 % of 999615.28 - largest nonzero change 0.60230314 (% 6.0260604e-05) - largest zero change 0.52844523
0  Obj 160783.45 Primal inf 239.02706 (240)
70  Obj 264134.98 Primal inf 4.8002909e-06 (2)
71  Obj 264135.82
Optimal - objective value 264133.69
After Postsolve, objective 264133.69, infeasibilities - dual 0 (0), primal 0 (0)
Optimal objective 264133.6917 - 71 iterations time 0.002, Presolve 0.00
Cbc0045I Solution with objective value 264134 saved
   8 |  +2.641276e+05 |  +2.641256e+05 |   7.689e-06 |   9.914e+01

Pajarito MICP solve summary:
 - Total time (s)       =       9.91e+01
 - Status               =        Optimal
 - Best feasible obj.   =  +2.641276e+05
 - Final OA obj. bound  =  +2.641256e+05
 - Relative opt. gap    =      7.689e-06
 - MIP solve count      =              8
 - Conic solve count    =              8
 - Feas. solution count =              6
 - Integer repeat count =              0

Timers (s):
 - Setup                =       9.82e-03
 -- Transform data      =       1.58e-04
 -- Create conic data   =       7.04e-05
 -- Create MIP data     =       1.07e-03
 -- Load/solve relax    =       8.25e-03
 - Iterative algorithm  =       9.91e+01
 -- Solve MIPs          =       9.91e+01
 -- Solve conic model   =       2.42e-02
 -- Process conic data  =       2.22e-04
 -- Add conic solution  =       5.21e-05
 -- Add dual cuts       =       3.60e-04
 -- Use outer inf/cuts  =       6.21e-04

Presolve 282 (-327) rows, 28 (-216) columns and 702 (-912) elements
Perturbing problem by 0.001 % of 999615.28 - largest nonzero change 0.60230314 (% 6.0260604e-05) - largest zero change 0.52844523
0  Obj 160783.45 Primal inf 271.02416 (272)
74  Obj 264135.65
Optimal - objective value 264133.51
After Postsolve, objective 264133.51, infeasibilities - dual 0 (0), primal 3.9667042e-06 (5)
Presolved model was optimal, full model needs cleaning up
0  Obj 264133.51 Primal inf 2.8082478e-06 (5)
1  Obj 264133.69
Optimal - objective value 264133.69
Optimal objective 264133.6917 - 75 iterations time 0.002, Presolve 0.00
Cbc0045I Solution with objective value 264134 saved
WARNING: Solver does not appear to support adding constraints to an existing model. Hot-start is disabled.
#STATUS# Optimal
#OBJVAL# 264127.606497738
#OBJBOUND# 264125.5756686318
#TIMESOLVER# 99.1473240852356
#TIMEALL# 99.14756083488464
#SOLUTION# [0.0,0.0,1.0,0.0,1.0,0.0,0.0,0.0,1.0,0.0,0.0,0.0,1.0,0.0,0.0,0.0,1.0,0.0,0.0,0.0,1.0,0.0,0.0,0.0,0.0,0.0,0.9999999999999999,0.0,0.0,0.0,0.0,1.0,0.0,0.0,0.0,1.0,0.0,1.0,0.0,0.0,0.0,0.0,0.0,1.0,1.0,0.0,0.0,0.0,0.0,0.0,0.9999999999999999,0.0,0.0,1.0,0.0,0.0,1.0,0.0,0.0,0.0,0.0,0.0,0.0,1.0,1.0,0.0,0.0,0.0,0.0,0.0,0.0,1.0,0.0,0.0,0.0,1.0,0.0,0.0,1.0,0.0,0.0,1.0,0.0,0.0,0.0,0.0,0.0,1.0,0.0,1.0,0.0,0.0,1.0,0.0,0.0,0.0,0.0,1.0,0.0,0.0,0.0,0.0,0.9999999999999999,0.0,0.0,0.0,1.0,0.0,0.0,0.0,0.0,1.0,0.0,0.0,1.0,0.0,0.0,1.0,0.0,0.0,0.0,0.0,1.0,0.0,0.0,1.0,0.0,0.0,1.0,0.0,0.0,1.0,0.6898590516281459,0.6141757371040614,0.7006676845741682,0.7090020145148203,1.1633056657465363e-10,1.1633045752712408e-10,0.40823469455823846,5.475420569312903e-10,5.475418966575317e-10,0.3804889317145156,-6.130798355693161e-10,-6.130799480733574e-10,0.41199547254880126,8.943987206592988e-12,8.943810208797131e-12,0.4148631853703058,0.0,0.34492952575590746,0.3449295257559075,0.14081218061869807,0.30708786827825946,0.3070878682782595,0.11684341176032394,0.3503338425936238,0.3503338425936239,0.14433609533770186,0.3545010072529379,0.3545010072529381,0.14706941473680932,1.689859051628146,1.689859051628146,1.6898590527085855,1.6141757371040613,1.6141757371040613,1.614175740757633,1.700667684574168,1.700667684574168,1.7006676804109646,1.7090020145148201,1.7090020145148201,1.7090020148192595,0.6898590516281459,0.6898590516281459,0.6898590481038307,0.6141757371040614,0.6141757371040614,0.6141757240214608,0.7006676845741681,0.7006676845741681,0.7006676991233569,0.7090020145148203,0.7090020145148203,0.7090020137181063]
